language ESSENCE' 1.0
$ loaded file: carseqdata/csplib-instance-26
letting numcars=200
letting numclasses=24
letting numoptions=5
letting optMax=[1, 2, 1, 2, 1]
letting windowSize=[2, 3, 3, 5, 5]
letting numberPerClass=[73, 2, 17, 2, 3, 3, 1, 3, 25, 1, 1, 2, 16, 2, 7, 14, 7, 6, 3, 1, 2, 1, 6, 2]
letting optionsRequired=[[0, 1, 0, 0, 0], [0, 0, 0, 1, 1], [0, 0, 0, 0, 1], [1, 1, 1, 1, 0], [0, 1, 0, 0, 1], [0, 1, 1, 1, 0], [1, 0, 1, 0, 1], [1, 1, 0, 1, 0], [0, 0, 0, 1, 0], [1, 1, 0, 1, 1], [0, 0, 1, 1, 1], [1, 0, 1, 0, 0], [0, 0, 1, 0, 0], [1, 1, 0, 0, 1], [1, 1, 0, 0, 0], [1, 0, 0, 0, 0], [0, 1, 1, 0, 0], [1, 1, 1, 0, 0], [1, 0, 0, 1, 0], [0, 0, 1, 1, 0], [1, 0, 1, 1, 0], [0, 1, 0, 1, 1], [0, 1, 0, 0, 0], [1, 0, 0, 0, 1]]
